data/instances/vrp_files/train_3.vrp
NAME : 3
COMMENT : Generated instance No. 3
TYPE : CVRP
DIMENSION : 21
EDGE_WEIGHT_TYPE : EUC_2D
CAPACITY : 30
NODE_COORD_SECTION
 1 720 308
 2 675 735
 3 209 541
 4 695 228
 5 174 982
 6 516 260
 7 996 965
 8 558 882
 9 188 278
 10 700 846
 11 856 404
 12 887 850
 13 935 785
 14 668 580
 15 372 940
 16 973 283
 17 305 485
 18 448 994
 19 175 18
 20 493 178
 21 366 744
DEMAND_SECTION
1 0
2 3
3 6
4 7
5 6
6 6
7 6
8 3
9 6
10 8
11 2
12 5
13 1
14 1
15 5
16 3
17 4
18 3
19 1
20 1
21 5
DEPOT_SECTION
 1
 -1
EOF